(declare-fun e () String)
(declare-fun g () String)
(declare-fun b () String)
(declare-fun d () String)
(declare-fun f () String)
(declare-fun h () String)
(assert (= (str.++ "eh" e) (str.++ h "d")))
(assert (= (str.++ "ehe" g) (str.++ d "e")))
(assert (= (str.++ h b "c") (str.++ f "ae" d f "c")))

(check-sat)
